c Grafo no formato DIMACS 
p edge 60 166 
e 1 51 
e 1 50 
e 1 40 
e 1 31 
e 1 16 
e 1 13 
e 1 6 
e 2 42 
e 2 39 
e 2 28 
e 2 23 
e 2 4 
e 3 48 
e 3 39 
e 3 38 
e 3 28 
e 3 9 
e 4 47 
e 4 46 
e 4 43 
e 4 32 
e 4 31 
e 4 17 
e 4 6 
e 5 44 
e 5 43 
e 5 28 
e 5 26 
e 5 22 
e 5 20 
e 5 6 
e 6 56 
e 6 51 
e 6 27 
e 6 13 
e 7 54 
e 7 45 
e 7 44 
e 7 36 
e 7 32 
e 7 21 
e 7 11 
e 7 8 
e 8 57 
e 8 51 
e 8 39 
e 8 35 
e 8 31 
e 8 29 
e 8 16 
e 9 58 
e 9 41 
e 9 17 
e 10 43 
e 10 12 
e 11 49 
e 11 47 
e 11 42 
e 11 29 
e 12 53 
e 12 49 
e 12 39 
e 12 30 
e 13 49 
e 13 44 
e 14 45 
e 14 37 
e 14 34 
e 14 27 
e 14 17 
e 14 15 
e 15 59 
e 15 57 
e 15 55 
e 15 53 
e 15 38 
e 15 34 
e 16 53 
e 17 56 
e 17 43 
e 17 18 
e 18 52 
e 18 35 
e 18 34 
e 18 25 
e 18 22 
e 18 19 
e 19 50 
e 19 38 
e 19 36 
e 20 48 
e 20 28 
e 21 59 
e 22 56 
e 22 40 
e 22 35 
e 22 32 
e 22 30 
e 22 24 
e 22 23 
e 23 57 
e 23 50 
e 24 45 
e 24 27 
e 24 26 
e 25 48 
e 25 47 
e 25 39 
e 25 30 
e 26 60 
e 26 58 
e 26 52 
e 26 42 
e 27 56 
e 27 55 
e 27 29 
e 28 53 
e 28 42 
e 29 60 
e 29 59 
e 29 58 
e 30 60 
e 30 53 
e 30 51 
e 30 50 
e 30 45 
e 30 44 
e 30 43 
e 30 40 
e 31 33 
e 32 54 
e 32 40 
e 34 51 
e 34 36 
e 35 37 
e 36 47 
e 37 51 
e 37 47 
e 37 45 
e 38 60 
e 38 56 
e 38 55 
e 38 52 
e 38 40 
e 39 54 
e 39 45 
e 40 53 
e 41 60 
e 41 58 
e 41 55 
e 41 53 
e 41 48 
e 41 47 
e 43 57 
e 43 48 
e 44 57 
e 46 59 
e 46 56 
e 46 49 
e 47 52 
e 48 52 
e 49 51 
e 50 57 
e 54 59 
e 54 56 
e 56 57 
